28 10000
5590 43
8259 55
4763 52
8182 4
6912 82
4630 30
5060 81
9726 22
8917 65
5768 37
8498 96
4843 16
7726 41
6280 58
6389 66
17 77
3134 39
715 51
7490 80
4280 32
7686 74
9936 85
6024 6
8290 73
6002 21
6897 84
7614 62
2449 68
